c File: flat50_3_0.col
c
c SOURCE: Joseph Culberson (joe@cs.ualberta.ca)
c DESCRIPTION: Quasi-random coloring problem
c              generated with flatness = 0
c                             probability = 0.139
c                             known coloring = 3
c                             random seed = 1748
c              Creation Date:  Tue Jun  9 12:16:54 1998
c Maximum degree = 8 Minimum degree = 1
c p edge 50 115
c cnf created by edge2cnf
p cnf 150 545
-1 -2 0
-1 -3 0
-2 -3 0
1 2 3 0
-4 -5 0
-4 -6 0
-5 -6 0
4 5 6 0
-7 -8 0
-7 -9 0
-8 -9 0
7 8 9 0
-10 -11 0
-10 -12 0
-11 -12 0
10 11 12 0
-13 -14 0
-13 -15 0
-14 -15 0
13 14 15 0
-16 -17 0
-16 -18 0
-17 -18 0
16 17 18 0
-19 -20 0
-19 -21 0
-20 -21 0
19 20 21 0
-22 -23 0
-22 -24 0
-23 -24 0
22 23 24 0
-25 -26 0
-25 -27 0
-26 -27 0
25 26 27 0
-28 -29 0
-28 -30 0
-29 -30 0
28 29 30 0
-31 -32 0
-31 -33 0
-32 -33 0
31 32 33 0
-34 -35 0
-34 -36 0
-35 -36 0
34 35 36 0
-37 -38 0
-37 -39 0
-38 -39 0
37 38 39 0
-40 -41 0
-40 -42 0
-41 -42 0
40 41 42 0
-43 -44 0
-43 -45 0
-44 -45 0
43 44 45 0
-46 -47 0
-46 -48 0
-47 -48 0
46 47 48 0
-49 -50 0
-49 -51 0
-50 -51 0
49 50 51 0
-52 -53 0
-52 -54 0
-53 -54 0
52 53 54 0
-55 -56 0
-55 -57 0
-56 -57 0
55 56 57 0
-58 -59 0
-58 -60 0
-59 -60 0
58 59 60 0
-61 -62 0
-61 -63 0
-62 -63 0
61 62 63 0
-64 -65 0
-64 -66 0
-65 -66 0
64 65 66 0
-67 -68 0
-67 -69 0
-68 -69 0
67 68 69 0
-70 -71 0
-70 -72 0
-71 -72 0
70 71 72 0
-73 -74 0
-73 -75 0
-74 -75 0
73 74 75 0
-76 -77 0
-76 -78 0
-77 -78 0
76 77 78 0
-79 -80 0
-79 -81 0
-80 -81 0
79 80 81 0
-82 -83 0
-82 -84 0
-83 -84 0
82 83 84 0
-85 -86 0
-85 -87 0
-86 -87 0
85 86 87 0
-88 -89 0
-88 -90 0
-89 -90 0
88 89 90 0
-91 -92 0
-91 -93 0
-92 -93 0
91 92 93 0
-94 -95 0
-94 -96 0
-95 -96 0
94 95 96 0
-97 -98 0
-97 -99 0
-98 -99 0
97 98 99 0
-100 -101 0
-100 -102 0
-101 -102 0
100 101 102 0
-103 -104 0
-103 -105 0
-104 -105 0
103 104 105 0
-106 -107 0
-106 -108 0
-107 -108 0
106 107 108 0
-109 -110 0
-109 -111 0
-110 -111 0
109 110 111 0
-112 -113 0
-112 -114 0
-113 -114 0
112 113 114 0
-115 -116 0
-115 -117 0
-116 -117 0
115 116 117 0
-118 -119 0
-118 -120 0
-119 -120 0
118 119 120 0
-121 -122 0
-121 -123 0
-122 -123 0
121 122 123 0
-124 -125 0
-124 -126 0
-125 -126 0
124 125 126 0
-127 -128 0
-127 -129 0
-128 -129 0
127 128 129 0
-130 -131 0
-130 -132 0
-131 -132 0
130 131 132 0
-133 -134 0
-133 -135 0
-134 -135 0
133 134 135 0
-136 -137 0
-136 -138 0
-137 -138 0
136 137 138 0
-139 -140 0
-139 -141 0
-140 -141 0
139 140 141 0
-142 -143 0
-142 -144 0
-143 -144 0
142 143 144 0
-145 -146 0
-145 -147 0
-146 -147 0
145 146 147 0
-148 -149 0
-148 -150 0
-149 -150 0
148 149 150 0
-67 -1 0
-68 -2 0
-69 -3 0
-133 -1 0
-134 -2 0
-135 -3 0
-136 -1 0
-137 -2 0
-138 -3 0
-64 -4 0
-65 -5 0
-66 -6 0
-76 -4 0
-77 -5 0
-78 -6 0
-79 -4 0
-80 -5 0
-81 -6 0
-85 -4 0
-86 -5 0
-87 -6 0
-112 -4 0
-113 -5 0
-114 -6 0
-118 -4 0
-119 -5 0
-120 -6 0
-142 -4 0
-143 -5 0
-144 -6 0
-61 -7 0
-62 -8 0
-63 -9 0
-85 -7 0
-86 -8 0
-87 -9 0
-97 -7 0
-98 -8 0
-99 -9 0
-148 -7 0
-149 -8 0
-150 -9 0
-52 -10 0
-53 -11 0
-54 -12 0
-106 -10 0
-107 -11 0
-108 -12 0
-127 -10 0
-128 -11 0
-129 -12 0
-136 -10 0
-137 -11 0
-138 -12 0
-139 -10 0
-140 -11 0
-141 -12 0
-133 -13 0
-134 -14 0
-135 -15 0
-136 -13 0
-137 -14 0
-138 -15 0
-139 -13 0
-140 -14 0
-141 -15 0
-52 -16 0
-53 -17 0
-54 -18 0
-70 -16 0
-71 -17 0
-72 -18 0
-79 -16 0
-80 -17 0
-81 -18 0
-91 -16 0
-92 -17 0
-93 -18 0
-103 -16 0
-104 -17 0
-105 -18 0
-109 -16 0
-110 -17 0
-111 -18 0
-121 -16 0
-122 -17 0
-123 -18 0
-136 -16 0
-137 -17 0
-138 -18 0
-76 -19 0
-77 -20 0
-78 -21 0
-124 -19 0
-125 -20 0
-126 -21 0
-142 -19 0
-143 -20 0
-144 -21 0
-145 -19 0
-146 -20 0
-147 -21 0
-52 -22 0
-53 -23 0
-54 -24 0
-70 -22 0
-71 -23 0
-72 -24 0
-88 -22 0
-89 -23 0
-90 -24 0
-91 -22 0
-92 -23 0
-93 -24 0
-112 -22 0
-113 -23 0
-114 -24 0
-118 -22 0
-119 -23 0
-120 -24 0
-124 -22 0
-125 -23 0
-126 -24 0
-130 -22 0
-131 -23 0
-132 -24 0
-70 -25 0
-71 -26 0
-72 -27 0
-124 -25 0
-125 -26 0
-126 -27 0
-82 -28 0
-83 -29 0
-84 -30 0
-97 -28 0
-98 -29 0
-99 -30 0
-139 -28 0
-140 -29 0
-141 -30 0
-97 -31 0
-98 -32 0
-99 -33 0
-100 -31 0
-101 -32 0
-102 -33 0
-124 -31 0
-125 -32 0
-126 -33 0
-142 -31 0
-143 -32 0
-144 -33 0
-148 -31 0
-149 -32 0
-150 -33 0
-67 -34 0
-68 -35 0
-69 -36 0
-109 -34 0
-110 -35 0
-111 -36 0
-55 -37 0
-56 -38 0
-57 -39 0
-79 -37 0
-80 -38 0
-81 -39 0
-82 -37 0
-83 -38 0
-84 -39 0
-100 -37 0
-101 -38 0
-102 -39 0
-112 -37 0
-113 -38 0
-114 -39 0
-115 -37 0
-116 -38 0
-117 -39 0
-130 -37 0
-131 -38 0
-132 -39 0
-61 -40 0
-62 -41 0
-63 -42 0
-115 -40 0
-116 -41 0
-117 -42 0
-73 -43 0
-74 -44 0
-75 -45 0
-79 -43 0
-80 -44 0
-81 -45 0
-85 -43 0
-86 -44 0
-87 -45 0
-88 -43 0
-89 -44 0
-90 -45 0
-106 -43 0
-107 -44 0
-108 -45 0
-109 -43 0
-110 -44 0
-111 -45 0
-52 -46 0
-53 -47 0
-54 -48 0
-55 -46 0
-56 -47 0
-57 -48 0
-82 -46 0
-83 -47 0
-84 -48 0
-100 -46 0
-101 -47 0
-102 -48 0
-112 -46 0
-113 -47 0
-114 -48 0
-142 -46 0
-143 -47 0
-144 -48 0
-76 -49 0
-77 -50 0
-78 -51 0
-82 -49 0
-83 -50 0
-84 -51 0
-85 -49 0
-86 -50 0
-87 -51 0
-109 -55 0
-110 -56 0
-111 -57 0
-112 -55 0
-113 -56 0
-114 -57 0
-118 -55 0
-119 -56 0
-120 -57 0
-112 -58 0
-113 -59 0
-114 -60 0
-115 -58 0
-116 -59 0
-117 -60 0
-130 -58 0
-131 -59 0
-132 -60 0
-118 -61 0
-119 -62 0
-120 -63 0
-103 -70 0
-104 -71 0
-105 -72 0
-121 -70 0
-122 -71 0
-123 -72 0
-124 -70 0
-125 -71 0
-126 -72 0
-127 -70 0
-128 -71 0
-129 -72 0
-106 -73 0
-107 -74 0
-108 -75 0
-136 -73 0
-137 -74 0
-138 -75 0
-127 -76 0
-128 -77 0
-129 -78 0
-130 -79 0
-131 -80 0
-132 -81 0
-139 -79 0
-140 -80 0
-141 -81 0
-148 -79 0
-149 -80 0
-150 -81 0
-121 -82 0
-122 -83 0
-123 -84 0
-127 -82 0
-128 -83 0
-129 -84 0
-133 -82 0
-134 -83 0
-135 -84 0
-109 -85 0
-110 -86 0
-111 -87 0
-115 -85 0
-116 -86 0
-117 -87 0
-124 -85 0
-125 -86 0
-126 -87 0
-130 -88 0
-131 -89 0
-132 -90 0
-133 -88 0
-134 -89 0
-135 -90 0
-142 -88 0
-143 -89 0
-144 -90 0
-106 -91 0
-107 -92 0
-108 -93 0
-124 -91 0
-125 -92 0
-126 -93 0
-136 -91 0
-137 -92 0
-138 -93 0
-142 -91 0
-143 -92 0
-144 -93 0
-109 -94 0
-110 -95 0
-111 -96 0
-112 -94 0
-113 -95 0
-114 -96 0
-121 -94 0
-122 -95 0
-123 -96 0
-112 -97 0
-113 -98 0
-114 -99 0
-124 -97 0
-125 -98 0
-126 -99 0
-148 -97 0
-149 -98 0
-150 -99 0
-127 -100 0
-128 -101 0
-129 -102 0
